\ This file has been generated by DOcplex
\ ENCODING=ISO-8859-1
\Problem name: ComponentOrdering

Minimize
 obj: 12 Amount_Bought_on_period_0 + 12 Amount_Bought_on_period_1
      + 12 Amount_Bought_on_period_2 + 12 Amount_Bought_on_period_3
      + 12 Amount_Bought_on_period_4 + 12 Amount_Bought_on_period_5
      + 12 Amount_Bought_on_period_6 + 12 Amount_Bought_on_period_7
      + 12 Amount_Bought_on_period_8 + 12 Amount_Bought_on_period_9
      + 12 Amount_Bought_on_period_10 + 12 Amount_Bought_on_period_11
      + 150 Whether_Bought_on_period_0 + 150 Whether_Bought_on_period_1
      + 150 Whether_Bought_on_period_2 + 150 Whether_Bought_on_period_3
      + 150 Whether_Bought_on_period_4 + 150 Whether_Bought_on_period_5
      + 150 Whether_Bought_on_period_6 + 150 Whether_Bought_on_period_7
      + 150 Whether_Bought_on_period_8 + 150 Whether_Bought_on_period_9
      + 150 Whether_Bought_on_period_10 + 150 Whether_Bought_on_period_11
      + Holding_0 + Holding_1 + Holding_2 + Holding_3 + Holding_4 + Holding_5
      + Holding_6 + Holding_7 + Holding_8 + Holding_9 + Holding_10 + Holding_11
Subject To
 c1: Whether_Bought_on_period_0 - _bool#1 = 0
 c2: Whether_Bought_on_period_1 - _bool#2 = 0
 c3: Whether_Bought_on_period_2 - _bool#3 = 0
 c4: Whether_Bought_on_period_3 - _bool#4 = 0
 c5: Whether_Bought_on_period_4 - _bool#5 = 0
 c6: Whether_Bought_on_period_5 - _bool#6 = 0
 c7: Whether_Bought_on_period_6 - _bool#7 = 0
 c8: Whether_Bought_on_period_7 - _bool#8 = 0
 c9: Whether_Bought_on_period_8 - _bool#9 = 0
 c10: Whether_Bought_on_period_9 - _bool#10 = 0
 c11: Whether_Bought_on_period_10 - _bool#11 = 0
 c12: Whether_Bought_on_period_11 - _bool#12 = 0
 c13: Holding_0 = 0
 c14: Holding_1 - Amount_Bought_on_period_0 = -20
 c15: Holding_2 - Amount_Bought_on_period_0 - Amount_Bought_on_period_1 = -40
 c16: Holding_3 - Amount_Bought_on_period_0 - Amount_Bought_on_period_1
      - Amount_Bought_on_period_2 = -70
 c17: Holding_4 - Amount_Bought_on_period_0 - Amount_Bought_on_period_1
      - Amount_Bought_on_period_2 - Amount_Bought_on_period_3 = -110
 c18: Holding_5 - Amount_Bought_on_period_0 - Amount_Bought_on_period_1
      - Amount_Bought_on_period_2 - Amount_Bought_on_period_3
      - Amount_Bought_on_period_4 = -250
 c19: Holding_6 - Amount_Bought_on_period_0 - Amount_Bought_on_period_1
      - Amount_Bought_on_period_2 - Amount_Bought_on_period_3
      - Amount_Bought_on_period_4 - Amount_Bought_on_period_5 = -610
 c20: Holding_7 - Amount_Bought_on_period_0 - Amount_Bought_on_period_1
      - Amount_Bought_on_period_2 - Amount_Bought_on_period_3
      - Amount_Bought_on_period_4 - Amount_Bought_on_period_5
      - Amount_Bought_on_period_6 = -1110
 c21: Holding_8 - Amount_Bought_on_period_0 - Amount_Bought_on_period_1
      - Amount_Bought_on_period_2 - Amount_Bought_on_period_3
      - Amount_Bought_on_period_4 - Amount_Bought_on_period_5
      - Amount_Bought_on_period_6 - Amount_Bought_on_period_7 = -1650
 c22: Holding_9 - Amount_Bought_on_period_0 - Amount_Bought_on_period_1
      - Amount_Bought_on_period_2 - Amount_Bought_on_period_3
      - Amount_Bought_on_period_4 - Amount_Bought_on_period_5
      - Amount_Bought_on_period_6 - Amount_Bought_on_period_7
      - Amount_Bought_on_period_8 = -2110
 c23: Holding_10 - Amount_Bought_on_period_0 - Amount_Bought_on_period_1
      - Amount_Bought_on_period_2 - Amount_Bought_on_period_3
      - Amount_Bought_on_period_4 - Amount_Bought_on_period_5
      - Amount_Bought_on_period_6 - Amount_Bought_on_period_7
      - Amount_Bought_on_period_8 - Amount_Bought_on_period_9 = -2190
 c24: Holding_11 - Amount_Bought_on_period_0 - Amount_Bought_on_period_1
      - Amount_Bought_on_period_2 - Amount_Bought_on_period_3
      - Amount_Bought_on_period_4 - Amount_Bought_on_period_5
      - Amount_Bought_on_period_6 - Amount_Bought_on_period_7
      - Amount_Bought_on_period_8 - Amount_Bought_on_period_9
      - Amount_Bought_on_period_10 = -2190
 c25: Amount_Bought_on_period_0 <= 1000
 c26: Amount_Bought_on_period_1 <= 1000
 c27: Amount_Bought_on_period_2 <= 1000
 c28: Amount_Bought_on_period_3 <= 1000
 c29: Amount_Bought_on_period_4 <= 1000
 c30: Amount_Bought_on_period_5 <= 1000
 c31: Amount_Bought_on_period_6 <= 1000
 c32: Amount_Bought_on_period_7 <= 1000
 c33: Amount_Bought_on_period_8 <= 1000
 c34: Amount_Bought_on_period_9 <= 1000
 c35: Amount_Bought_on_period_10 <= 1000
 c36: Amount_Bought_on_period_11 <= 1000
 lc1: _bool#1 = 1 <-> Amount_Bought_on_period_0 >= 1
 lc2: _bool#2 = 1 <-> Amount_Bought_on_period_1 >= 1
 lc3: _bool#3 = 1 <-> Amount_Bought_on_period_2 >= 1
 lc4: _bool#4 = 1 <-> Amount_Bought_on_period_3 >= 1
 lc5: _bool#5 = 1 <-> Amount_Bought_on_period_4 >= 1
 lc6: _bool#6 = 1 <-> Amount_Bought_on_period_5 >= 1
 lc7: _bool#7 = 1 <-> Amount_Bought_on_period_6 >= 1
 lc8: _bool#8 = 1 <-> Amount_Bought_on_period_7 >= 1
 lc9: _bool#9 = 1 <-> Amount_Bought_on_period_8 >= 1
 lc10: _bool#10 = 1 <-> Amount_Bought_on_period_9 >= 1
 lc11: _bool#11 = 1 <-> Amount_Bought_on_period_10 >= 1
 lc12: _bool#12 = 1 <-> Amount_Bought_on_period_11 >= 1

Bounds
 0 <= Whether_Bought_on_period_0 <= 1
 0 <= Whether_Bought_on_period_1 <= 1
 0 <= Whether_Bought_on_period_2 <= 1
 0 <= Whether_Bought_on_period_3 <= 1
 0 <= Whether_Bought_on_period_4 <= 1
 0 <= Whether_Bought_on_period_5 <= 1
 0 <= Whether_Bought_on_period_6 <= 1
 0 <= Whether_Bought_on_period_7 <= 1
 0 <= Whether_Bought_on_period_8 <= 1
 0 <= Whether_Bought_on_period_9 <= 1
 0 <= Whether_Bought_on_period_10 <= 1
 0 <= Whether_Bought_on_period_11 <= 1
 0 <= _bool#1 <= 1
 0 <= _bool#2 <= 1
 0 <= _bool#3 <= 1
 0 <= _bool#4 <= 1
 0 <= _bool#5 <= 1
 0 <= _bool#6 <= 1
 0 <= _bool#7 <= 1
 0 <= _bool#8 <= 1
 0 <= _bool#9 <= 1
 0 <= _bool#10 <= 1
 0 <= _bool#11 <= 1
 0 <= _bool#12 <= 1

Binaries
 Whether_Bought_on_period_0 Whether_Bought_on_period_1
 Whether_Bought_on_period_2 Whether_Bought_on_period_3
 Whether_Bought_on_period_4 Whether_Bought_on_period_5
 Whether_Bought_on_period_6 Whether_Bought_on_period_7
 Whether_Bought_on_period_8 Whether_Bought_on_period_9
 Whether_Bought_on_period_10 Whether_Bought_on_period_11 _bool#1 _bool#2 _bool#3
 _bool#4 _bool#5 _bool#6 _bool#7 _bool#8 _bool#9 _bool#10 _bool#11 _bool#12

Generals
 Amount_Bought_on_period_0 Amount_Bought_on_period_1 Amount_Bought_on_period_2
 Amount_Bought_on_period_3 Amount_Bought_on_period_4 Amount_Bought_on_period_5
 Amount_Bought_on_period_6 Amount_Bought_on_period_7 Amount_Bought_on_period_8
 Amount_Bought_on_period_9 Amount_Bought_on_period_10 Amount_Bought_on_period_11
 Holding_0 Holding_1 Holding_2 Holding_3 Holding_4 Holding_5 Holding_6 Holding_7
 Holding_8 Holding_9 Holding_10 Holding_11
End
